VERTICES = 30
EDGES = 77
24 22
17 30
27 20
26 23
26 24
27 29
29 28
30 1
30 2
30 26
11 10
13 10
13 11
10 19
14 19
18 15
19 18
14 1
14 2
11 6
3 15
3 17
11 9
3 19
15 7
14 8
13 9
17 7
18 7
8 17
21 10
11 20
8 18
20 13
10 25
20 15
2 1
26 10
21 15
17 21
1 5
10 29
15 24
1 6
2 5
3 4
25 15
23 17
18 22
5 4
1 9
7 3
4 6
16 27
19 24
27 17
18 26
16 29
6 7
17 29
9 6
1 21
9 8
22 3
20 5
23 3
6 20
4 23
27 2
4 25
7 22
9 20
4 27
25 7
25 9
11 30
7 29
